NAME: rue_25_8
TYPE: TSP
DIMENSION: 25
EDGE_WEIGHT_TYPE: EUC_2D
NODE_COORD_SECTION
1 48 8
2 61 70
3 39 97
4 84 57
5 11 16
6 51 4
7 4 95
8 87 40
9 24 52
10 16 95
11 82 99
12 6 51
13 65 47
14 10 10
15 93 25
16 43 25
17 5 2
18 52 18
19 51 55
20 93 17
21 36 42
22 79 21
23 90 32
24 9 25
25 80 68
